<?xml version = "1.0" standalone="yes"?>
<!-- This file has been generated by DOcplex version 2.23.222  -->
<CPLEXSolution version="1.0">
 <header
   problemName="CVRP"
   objectiveValue="16337.4"
  />
 <variables>
  <variable name="x_0_1" index="0" value="1.00000"/>
  <variable name="x_0_3" index="2" value="1.00000"/>
  <variable name="x_0_4" index="3" value="1.00000"/>
  <variable name="x_0_6" index="5" value="1.00000"/>
  <variable name="x_0_9" index="8" value="1.00000"/>
  <variable name="x_0_12" index="11" value="1.00000"/>
  <variable name="x_0_13" index="12" value="1.00000"/>
  <variable name="x_0_14" index="13" value="1.00000"/>
  <variable name="x_0_16" index="15" value="1.00000"/>
  <variable name="x_0_17" index="16" value="1.00000"/>
  <variable name="x_0_18" index="17" value="1.00000"/>
  <variable name="x_0_19" index="18" value="1.00000"/>
  <variable name="x_0_20" index="19" value="1.00000"/>
  <variable name="x_1_22" index="43" value="1.00000"/>
  <variable name="x_2_0" index="44" value="1.00000"/>
  <variable name="x_3_15" index="80" value="1.00000"/>
  <variable name="x_4_8" index="95" value="1.00000"/>
  <variable name="x_5_0" index="110" value="1.00000"/>
  <variable name="x_6_10" index="141" value="1.00000"/>
  <variable name="x_7_0" index="154" value="1.00000"/>
  <variable name="x_8_0" index="176" value="1.00000"/>
  <variable name="x_9_0" index="198" value="1.00000"/>
  <variable name="x_10_7" index="227" value="1.00000"/>
  <variable name="x_11_0" index="242" value="1.00000"/>
  <variable name="x_12_0" index="264" value="1.00000"/>
  <variable name="x_13_2" index="288" value="1.00000"/>
  <variable name="x_14_0" index="308" value="1.00000"/>
  <variable name="x_15_0" index="330" value="1.00000"/>
  <variable name="x_16_0" index="352" value="1.00000"/>
  <variable name="x_17_5" index="379" value="1.00000"/>
  <variable name="x_18_21" index="416" value="1.00000"/>
  <variable name="x_19_0" index="418" value="1.00000"/>
  <variable name="x_20_0" index="440" value="1.00000"/>
  <variable name="x_21_11" index="473" value="1.00000"/>
  <variable name="x_22_0" index="484" value="1.00000"/>
  <variable name="u_1" index="506" value="9.00000"/>
  <variable name="u_2" index="507" value="30.00000"/>
  <variable name="u_3" index="508" value="17.00000"/>
  <variable name="u_4" index="509" value="14.00000"/>
  <variable name="u_5" index="510" value="31.00000"/>
  <variable name="u_6" index="511" value="7.00000"/>
  <variable name="u_7" index="512" value="31.00000"/>
  <variable name="u_8" index="513" value="28.00000"/>
  <variable name="u_9" index="514" value="24.00000"/>
  <variable name="u_10" index="515" value="12.00000"/>
  <variable name="u_11" index="516" value="31.00000"/>
  <variable name="u_12" index="517" value="27.00000"/>
  <variable name="u_13" index="518" value="23.00000"/>
  <variable name="u_14" index="519" value="31.00000"/>
  <variable name="u_15" index="520" value="31.00000"/>
  <variable name="u_16" index="521" value="21.00000"/>
  <variable name="u_17" index="522" value="18.00000"/>
  <variable name="u_18" index="523" value="3.00000"/>
  <variable name="u_19" index="524" value="20.00000"/>
  <variable name="u_20" index="525" value="31.00000"/>
  <variable name="u_21" index="526" value="10.00000"/>
  <variable name="u_22" index="527" value="31.00000"/>
 </variables>
</CPLEXSolution>
